jobs  (incl. supersource/sink ):	102
RESOURCES
- renewable                 : 2 R
- nonrenewable              : 4 N
- doubly constrained        : 0 D
************************************************************************
PRECEDENCE RELATIONS:
jobnr.    #modes  #successors   successors
1	1	25		2 3 4 5 6 7 8 9 10 11 12 14 16 17 18 19 20 21 25 26 27 28 35 37 41 
2	3	18		99 98 96 67 54 53 52 51 48 47 44 43 39 34 30 29 23 13 
3	3	18		98 97 95 68 66 64 63 62 56 53 52 51 49 46 43 39 32 24 
4	3	16		101 100 97 93 92 66 64 58 54 52 51 50 44 42 33 22 
5	3	13		98 85 67 66 64 58 52 51 49 47 43 38 15 
6	3	22		100 99 98 97 96 94 93 92 87 86 66 65 64 61 58 54 51 50 43 38 34 33 
7	3	15		101 100 97 96 93 66 62 61 51 48 45 44 38 34 24 
8	3	16		98 95 94 93 90 81 67 64 63 62 57 54 52 51 44 23 
9	3	12		94 67 65 58 52 51 49 46 43 39 34 33 
10	3	20		101 97 96 95 94 92 91 85 83 81 80 67 66 65 64 62 49 48 46 36 
11	3	20		99 98 95 93 89 88 84 83 82 80 77 76 75 63 62 61 58 55 51 32 
12	3	11		95 83 80 67 64 55 49 46 36 32 31 
13	3	18		100 97 94 93 92 89 88 86 85 84 83 78 65 64 61 58 38 33 
14	3	28		101 100 94 93 92 91 90 89 88 87 85 84 83 82 81 80 79 77 76 75 74 71 64 61 59 57 50 49 
15	3	15		100 99 96 95 94 93 92 89 88 86 83 74 61 46 33 
16	3	11		95 93 89 88 77 66 58 49 48 39 30 
17	3	13		100 94 93 88 79 77 76 66 63 62 50 43 30 
18	3	18		101 99 97 96 92 88 87 86 83 80 77 67 65 64 63 59 48 43 
19	3	16		97 95 94 93 89 86 80 76 68 67 65 63 62 60 46 39 
20	3	14		95 92 91 90 89 79 71 66 61 59 57 47 44 40 
21	3	18		100 99 98 95 92 89 85 83 80 76 70 66 62 61 59 53 52 38 
22	3	13		98 96 94 91 89 88 86 84 80 76 70 39 38 
23	3	17		101 91 89 88 87 85 83 80 79 77 76 72 66 61 59 58 50 
24	3	17		99 88 84 83 82 81 80 79 77 76 75 72 65 59 58 57 50 
25	3	17		98 91 89 85 83 82 80 79 76 74 71 70 66 61 60 53 49 
26	3	16		98 97 92 88 85 83 82 81 80 72 71 70 69 65 64 53 
27	3	10		97 92 89 85 78 73 70 61 49 38 
28	3	14		90 87 83 82 80 77 76 73 65 62 61 60 58 49 
29	3	16		95 91 89 86 84 83 80 79 77 76 75 71 70 69 65 62 
30	3	13		90 87 85 84 82 81 80 78 72 71 64 59 57 
31	3	13		90 88 87 85 84 82 78 74 73 72 70 63 59 
32	3	12		96 94 92 90 87 86 85 81 79 78 59 57 
33	3	10		91 82 81 80 77 76 63 62 59 57 
34	3	13		95 88 85 83 80 79 77 76 75 73 72 70 60 
35	3	13		100 94 88 87 86 83 81 79 76 74 72 70 60 
36	3	11		93 86 78 77 76 75 73 71 70 61 59 
37	3	11		99 96 83 79 78 77 76 75 72 69 65 
38	3	8		90 82 79 77 75 74 71 60 
39	3	8		85 83 81 75 74 73 72 61 
40	3	8		93 87 84 81 76 75 70 60 
41	3	8		83 80 77 73 71 70 69 65 
42	3	7		90 81 76 74 72 71 57 
43	3	8		89 84 81 75 74 72 70 69 
44	3	8		87 86 82 80 77 74 72 70 
45	3	6		92 91 72 70 64 63 
46	3	7		87 82 79 78 77 75 70 
47	3	6		88 81 78 76 70 69 
48	3	5		79 78 76 75 70 
49	3	3		86 72 69 
50	3	3		78 73 70 
51	3	3		71 70 69 
52	3	3		91 71 69 
53	3	3		84 78 75 
54	3	3		88 75 70 
55	3	3		85 74 73 
56	3	3		92 81 71 
57	3	2		73 70 
58	3	2		71 69 
59	3	1		60 
60	3	1		69 
61	3	1		69 
62	3	1		72 
63	3	1		71 
64	3	1		73 
65	3	1		74 
66	3	1		84 
67	3	1		70 
68	3	1		77 
69	3	1		102 
70	3	1		102 
71	3	1		102 
72	3	1		102 
73	3	1		102 
74	3	1		102 
75	3	1		102 
76	3	1		102 
77	3	1		102 
78	3	1		102 
79	3	1		102 
80	3	1		102 
81	3	1		102 
82	3	1		102 
83	3	1		102 
84	3	1		102 
85	3	1		102 
86	3	1		102 
87	3	1		102 
88	3	1		102 
89	3	1		102 
90	3	1		102 
91	3	1		102 
92	3	1		102 
93	3	1		102 
94	3	1		102 
95	3	1		102 
96	3	1		102 
97	3	1		102 
98	3	1		102 
99	3	1		102 
100	3	1		102 
101	3	1		102 
102	1	0		
************************************************************************
REQUESTS/DURATIONS
jobnr.	mode	dur	R1	R2	N1	N2	N3	N4	
------------------------------------------------------------------------
1	1	0	0	0	0	0	0	0	
2	1	3	4	3	6	2	7	2	
	2	6	4	3	5	2	6	2	
	3	10	4	3	5	2	3	2	
3	1	4	3	1	8	9	7	2	
	2	5	2	1	7	9	5	2	
	3	8	2	1	6	9	3	2	
4	1	2	4	5	9	4	6	8	
	2	4	4	4	5	4	5	7	
	3	5	4	3	5	2	5	5	
5	1	3	4	1	4	3	6	9	
	2	5	4	1	2	3	4	7	
	3	6	3	1	2	3	3	6	
6	1	4	1	4	9	7	8	10	
	2	6	1	3	9	6	8	10	
	3	10	1	2	9	5	5	10	
7	1	7	5	5	9	8	8	7	
	2	9	4	4	7	7	5	5	
	3	10	3	4	6	6	4	5	
8	1	8	4	4	7	9	3	6	
	2	9	4	4	7	8	1	3	
	3	10	4	4	7	7	1	2	
9	1	2	3	5	8	5	7	6	
	2	7	2	3	7	4	5	6	
	3	8	2	1	6	1	2	4	
10	1	4	4	1	6	6	1	9	
	2	5	3	1	6	5	1	7	
	3	6	1	1	6	5	1	7	
11	1	8	4	3	2	7	6	8	
	2	9	3	2	2	7	3	5	
	3	10	3	2	2	6	3	3	
12	1	1	5	4	5	2	10	7	
	2	2	4	3	3	1	7	4	
	3	9	4	3	3	1	5	4	
13	1	5	4	4	9	6	7	6	
	2	6	2	3	9	4	6	5	
	3	8	1	3	9	4	5	4	
14	1	2	4	4	9	3	7	7	
	2	3	4	4	4	3	6	4	
	3	10	4	4	3	3	6	3	
15	1	1	1	3	7	8	5	8	
	2	2	1	3	3	6	5	6	
	3	5	1	3	3	5	5	3	
16	1	4	4	3	9	10	9	6	
	2	5	3	3	7	8	9	6	
	3	7	2	2	3	6	9	6	
17	1	1	5	3	6	5	6	5	
	2	5	4	3	6	3	4	5	
	3	6	3	2	5	2	4	4	
18	1	1	1	2	8	7	5	6	
	2	4	1	1	7	4	5	4	
	3	6	1	1	6	3	2	4	
19	1	3	5	2	5	4	7	10	
	2	4	5	2	4	3	7	9	
	3	8	5	2	3	3	5	9	
20	1	5	4	3	6	8	8	9	
	2	6	3	2	5	5	7	7	
	3	9	3	2	4	4	7	6	
21	1	2	2	4	5	2	9	9	
	2	3	1	3	4	2	9	9	
	3	4	1	2	1	2	9	9	
22	1	3	2	2	8	9	9	7	
	2	7	2	2	6	8	8	5	
	3	9	2	1	5	8	8	4	
23	1	2	3	3	3	10	6	7	
	2	6	3	3	3	9	6	6	
	3	10	3	3	2	8	6	5	
24	1	4	2	2	7	1	6	2	
	2	5	2	1	6	1	5	2	
	3	7	2	1	6	1	5	1	
25	1	4	4	5	8	6	8	10	
	2	5	3	4	8	6	6	7	
	3	8	3	4	5	4	6	3	
26	1	2	4	4	10	5	5	9	
	2	6	4	2	8	3	3	7	
	3	8	4	2	7	1	3	7	
27	1	4	5	3	8	1	7	7	
	2	7	4	2	5	1	5	6	
	3	9	2	2	3	1	2	5	
28	1	4	4	4	9	9	4	7	
	2	6	3	4	8	8	4	6	
	3	7	3	4	8	8	4	3	
29	1	1	3	5	3	10	7	2	
	2	2	3	2	1	6	6	1	
	3	3	2	2	1	6	6	1	
30	1	5	5	3	3	4	7	10	
	2	6	3	3	2	3	5	10	
	3	7	3	2	2	3	3	10	
31	1	4	2	5	7	6	3	10	
	2	9	2	4	6	4	1	5	
	3	10	2	4	5	3	1	1	
32	1	1	3	4	6	4	8	8	
	2	2	2	3	5	3	8	6	
	3	6	1	2	4	2	8	2	
33	1	4	4	4	3	4	9	10	
	2	6	3	3	2	4	4	9	
	3	10	2	2	1	2	3	7	
34	1	6	2	3	6	8	7	1	
	2	8	2	3	6	7	7	1	
	3	10	2	3	5	5	7	1	
35	1	1	4	2	3	8	4	8	
	2	4	4	1	2	6	3	5	
	3	10	3	1	2	6	3	4	
36	1	5	1	1	5	3	8	6	
	2	7	1	1	4	3	7	5	
	3	10	1	1	4	2	7	5	
37	1	4	4	2	8	9	6	8	
	2	5	4	1	8	8	5	8	
	3	7	4	1	8	5	3	8	
38	1	4	3	3	8	6	4	9	
	2	7	3	2	6	6	4	4	
	3	8	3	2	3	6	4	1	
39	1	3	4	4	9	8	3	8	
	2	4	3	4	8	4	3	7	
	3	8	2	3	8	3	2	6	
40	1	5	4	5	7	3	7	8	
	2	8	4	3	6	3	3	8	
	3	9	4	3	4	3	2	8	
41	1	1	2	1	10	8	4	9	
	2	2	1	1	9	6	3	4	
	3	7	1	1	9	3	3	3	
42	1	5	4	5	8	7	9	9	
	2	8	3	3	6	5	6	7	
	3	10	2	3	4	5	3	5	
43	1	1	3	4	9	7	7	9	
	2	5	1	2	7	5	7	7	
	3	7	1	2	3	3	6	6	
44	1	1	2	4	8	6	7	10	
	2	4	2	4	6	6	4	7	
	3	7	1	4	6	5	4	5	
45	1	4	2	1	7	3	9	8	
	2	7	2	1	7	2	7	4	
	3	10	2	1	3	2	5	4	
46	1	1	2	4	5	4	4	4	
	2	4	2	3	5	4	3	2	
	3	7	2	2	2	4	1	2	
47	1	3	5	2	6	7	1	3	
	2	4	4	1	2	6	1	3	
	3	5	3	1	1	6	1	2	
48	1	1	3	4	6	7	6	7	
	2	5	2	3	4	7	6	7	
	3	6	2	3	2	3	5	5	
49	1	1	3	3	8	6	6	6	
	2	3	2	3	6	6	6	5	
	3	10	1	3	4	4	6	4	
50	1	1	4	2	7	2	7	9	
	2	4	3	1	6	2	7	6	
	3	5	3	1	2	2	7	6	
51	1	1	3	4	1	7	7	4	
	2	5	2	4	1	5	7	3	
	3	6	1	4	1	5	7	2	
52	1	2	4	3	10	8	4	2	
	2	7	2	2	8	8	3	1	
	3	10	1	1	8	8	1	1	
53	1	3	4	4	5	6	9	4	
	2	5	3	3	5	6	6	4	
	3	9	2	3	5	6	5	4	
54	1	2	4	4	9	10	8	4	
	2	7	3	4	9	8	7	3	
	3	8	3	4	9	6	1	2	
55	1	1	3	4	2	10	5	5	
	2	5	3	3	2	10	5	4	
	3	9	3	1	1	10	5	2	
56	1	6	2	3	7	9	8	6	
	2	8	1	3	5	9	4	6	
	3	10	1	3	3	8	3	6	
57	1	1	1	3	6	7	9	10	
	2	2	1	2	5	5	7	4	
	3	10	1	1	5	4	5	4	
58	1	2	3	3	9	4	5	5	
	2	4	3	3	7	4	5	4	
	3	6	3	3	4	2	4	4	
59	1	1	5	1	2	6	4	7	
	2	2	5	1	1	6	4	6	
	3	6	5	1	1	6	3	6	
60	1	2	2	5	6	6	1	9	
	2	3	2	4	6	6	1	9	
	3	4	2	2	6	6	1	7	
61	1	4	4	3	10	5	7	7	
	2	7	4	3	6	4	6	7	
	3	8	3	3	1	4	5	7	
62	1	3	5	4	6	7	7	6	
	2	9	3	4	5	5	7	5	
	3	10	1	4	3	4	7	4	
63	1	1	3	1	6	6	9	10	
	2	2	2	1	4	6	8	7	
	3	3	2	1	4	6	8	6	
64	1	2	5	4	6	1	1	3	
	2	4	4	2	5	1	1	3	
	3	5	3	2	4	1	1	1	
65	1	6	4	4	4	9	10	9	
	2	7	4	4	2	8	7	9	
	3	8	3	4	2	7	4	7	
66	1	5	3	3	8	9	7	7	
	2	6	2	3	5	8	6	7	
	3	10	2	2	5	6	4	6	
67	1	3	3	4	10	2	5	9	
	2	6	3	4	9	1	3	8	
	3	8	3	4	8	1	2	7	
68	1	1	3	2	7	10	7	6	
	2	5	3	1	6	9	6	5	
	3	6	3	1	6	9	4	2	
69	1	1	5	2	9	9	5	2	
	2	2	4	1	6	7	4	2	
	3	6	4	1	2	5	4	1	
70	1	3	4	5	3	5	6	4	
	2	5	3	5	3	5	5	4	
	3	7	3	5	3	5	3	4	
71	1	2	4	2	8	8	7	8	
	2	5	4	2	4	6	7	8	
	3	10	4	1	1	6	2	8	
72	1	5	4	4	3	8	6	7	
	2	8	2	3	3	4	4	4	
	3	9	1	3	3	3	2	3	
73	1	3	1	3	5	7	10	6	
	2	6	1	3	4	6	9	6	
	3	9	1	3	4	6	9	5	
74	1	1	5	4	9	9	9	6	
	2	2	2	4	6	8	7	5	
	3	4	2	4	5	6	6	4	
75	1	5	3	4	9	4	6	5	
	2	9	2	2	8	4	6	4	
	3	10	2	2	7	2	5	4	
76	1	5	5	3	10	7	2	2	
	2	7	3	3	9	6	1	2	
	3	8	3	2	9	4	1	2	
77	1	5	3	3	8	3	5	4	
	2	6	3	1	6	3	4	4	
	3	7	3	1	5	3	3	4	
78	1	5	5	5	4	5	8	10	
	2	6	4	5	3	4	7	10	
	3	7	4	5	2	2	6	10	
79	1	1	3	1	4	7	9	6	
	2	7	3	1	3	6	5	4	
	3	10	2	1	3	6	4	3	
80	1	2	2	4	7	4	9	6	
	2	3	2	3	7	4	6	5	
	3	5	2	1	3	3	5	4	
81	1	2	4	3	10	6	6	10	
	2	3	4	3	9	5	4	8	
	3	4	4	3	9	3	3	8	
82	1	4	5	4	3	4	4	9	
	2	5	5	4	3	3	4	7	
	3	6	5	3	3	2	4	7	
83	1	1	5	3	8	8	8	9	
	2	2	4	2	8	4	5	4	
	3	5	3	2	7	3	5	3	
84	1	3	4	4	6	5	4	10	
	2	4	3	3	6	4	4	8	
	3	6	3	2	5	2	1	8	
85	1	5	2	4	6	5	6	4	
	2	7	2	4	4	4	6	3	
	3	8	2	3	4	3	6	3	
86	1	1	5	4	3	10	8	7	
	2	9	4	2	3	8	8	4	
	3	10	4	2	3	8	7	3	
87	1	1	3	5	7	8	6	4	
	2	4	2	5	4	8	4	4	
	3	6	2	5	1	8	3	3	
88	1	5	3	4	9	6	8	8	
	2	6	3	3	8	5	6	7	
	3	9	2	2	8	5	5	6	
89	1	3	3	1	9	3	8	4	
	2	6	2	1	5	3	7	3	
	3	9	1	1	3	3	6	2	
90	1	2	4	1	1	8	6	6	
	2	3	2	1	1	6	4	5	
	3	6	2	1	1	6	4	4	
91	1	3	4	4	5	9	7	8	
	2	6	4	4	4	6	5	8	
	3	7	4	4	4	5	4	8	
92	1	2	4	5	5	6	5	6	
	2	3	2	4	4	5	4	6	
	3	4	2	4	4	5	4	4	
93	1	5	2	3	5	4	4	3	
	2	6	1	3	5	4	3	3	
	3	7	1	3	5	2	2	2	
94	1	4	2	5	5	7	10	8	
	2	5	2	3	4	6	8	7	
	3	10	1	3	4	6	5	7	
95	1	1	3	4	3	9	4	9	
	2	6	3	3	3	8	4	9	
	3	9	2	2	3	7	4	8	
96	1	3	3	2	8	8	9	9	
	2	4	2	2	6	7	3	4	
	3	6	2	2	5	7	2	2	
97	1	1	4	3	10	9	9	4	
	2	2	4	3	8	8	8	3	
	3	8	4	2	5	7	7	3	
98	1	1	3	5	6	9	5	2	
	2	2	1	4	3	5	3	2	
	3	9	1	2	1	2	2	2	
99	1	3	5	2	7	7	7	9	
	2	7	4	2	5	6	7	8	
	3	8	4	2	5	5	5	8	
100	1	6	4	4	9	5	7	5	
	2	8	3	4	9	4	6	5	
	3	9	1	3	9	3	5	5	
101	1	1	3	5	7	10	9	8	
	2	4	1	5	5	8	4	7	
	3	6	1	5	2	8	3	6	
102	1	0	0	0	0	0	0	0	
************************************************************************

 RESOURCE AVAILABILITIES 
	R 1	R 2	N 1	N 2	N 3	N 4
	71	59	484	489	474	508

************************************************************************
